
Gurobi 9.0.2 (win64) logging started Sat Oct 10 13:55:21 2020

Changed value of parameter logfile to result\v6.2-20201010T1221\scenario_2030_eff085_cab0000.log
   Prev:   Default: 
Gurobi Optimizer version 9.0.2 build v9.0.2rc0 (win64)
Optimize a model with 1384150 rows, 884815 columns and 3912195 nonzeros
Model fingerprint: 0xa8739a52
Coefficient statistics:
  Matrix range     [1e-07, 3e+05]
  Objective range  [1e+00, 1e+00]
  Bounds range     [0e+00, 0e+00]
  RHS range        [2e-05, 3e+08]
Warning: Model contains large matrix coefficient range
         Consider reformulating model or setting NumericFocus parameter
         to avoid numerical issues.

Concurrent LP optimizer: primal simplex, dual simplex, and barrier
Showing barrier log only...

Presolve removed 1138075 rows and 656242 columns
Presolve time: 3.45s
Presolved: 246075 rows, 342439 columns, 874418 nonzeros

Ordering time: 0.12s

Barrier statistics:
 Dense cols : 8
 AA' NZ     : 7.669e+05
 Factor NZ  : 4.246e+06 (roughly 270 MBytes of memory)
 Factor Ops : 1.048e+08 (less than 1 second per iteration)
 Threads    : 30

                  Objective                Residual
Iter       Primal          Dual         Primal    Dual     Compl     Time
   0  -1.81694564e+16 -1.58517442e+15  5.65e+06 1.56e+04  2.18e+12     4s
   1  -2.24241762e+15 -1.58335235e+15  6.95e+05 4.91e+06  6.80e+11     4s
   2  -1.28995962e+15 -1.27926776e+15  3.99e+05 6.88e+05  1.87e+11     5s
   3  -4.04781929e+14 -1.04775560e+15  1.24e+05 1.90e+05  5.77e+10     5s
   4  -7.78725518e+13 -5.65875958e+14  2.29e+04 2.96e+04  1.06e+10     5s
   5  -3.04986911e+13 -4.60512188e+14  9.33e+03 2.04e+04  5.58e+09     6s
   6  -1.63304018e+13 -3.20412394e+14  5.12e+03 1.09e+04  3.07e+09     6s
   7  -7.58784121e+12 -1.75124093e+14  2.47e+03 2.98e+03  1.16e+09     6s
   8  -2.21472040e+12 -8.47836693e+13  8.22e+02 4.34e+02  3.13e+08     6s
   9   4.24701512e+11 -1.67122213e+13  6.08e+00 5.60e+00  2.62e+07     7s
  10   2.09595719e+11 -1.46443452e+12  1.01e+00 4.28e-01  2.50e+06     7s
  11   1.04689340e+11 -6.50899040e+11  4.24e-01 1.64e-01  1.12e+06     7s
  12   4.65898073e+10 -3.26500124e+11  1.53e-01 6.76e-02  5.50e+05     8s
  13   3.65453828e+10 -2.20663747e+11  1.15e-01 3.49e-02  3.79e+05     8s
  14   2.15853293e+10 -1.44969668e+11  5.70e-02 1.05e-02  2.45e+05     8s
  15   1.12438388e+10 -7.54164258e+10  1.87e-02 5.59e-09  1.27e+05     8s
  16   9.80011762e+09 -1.59654940e+10  1.41e-02 9.31e-09  3.80e+04     9s
  17   8.41720212e+09 -9.90216042e+09  8.62e-03 9.31e-09  2.70e+04     9s
  18   6.02085176e+09 -1.79765019e+08  2.31e-03 7.45e-09  9.11e+03     9s
  19   5.55760583e+09  2.04914082e+09  1.34e-03 5.59e-09  5.15e+03     9s
  20   5.41855370e+09  3.17439544e+09  1.08e-03 3.73e-09  3.30e+03    10s
  21   5.24578338e+09  3.38181869e+09  7.45e-04 3.73e-09  2.74e+03    10s
  22   5.15126945e+09  3.71956957e+09  5.73e-04 2.79e-09  2.10e+03    10s
  23   5.09107629e+09  3.93020896e+09  4.61e-04 2.79e-09  1.70e+03    10s
  24   4.99593525e+09  4.27590318e+09  2.85e-04 2.79e-09  1.06e+03    11s
  25   4.95597631e+09  4.46658712e+09  2.10e-04 1.86e-09  7.18e+02    11s
  26   4.91409480e+09  4.53027468e+09  1.33e-04 1.86e-09  5.62e+02    11s
  27   4.89466635e+09  4.62943191e+09  1.00e-04 1.86e-09  3.89e+02    12s
  28   4.87711315e+09  4.65187530e+09  6.97e-05 1.86e-09  3.30e+02    12s
  29   4.86658659e+09  4.71184746e+09  5.19e-05 1.86e-09  2.27e+02    12s
  30   4.85892009e+09  4.75995194e+09  3.91e-05 1.86e-09  1.45e+02    13s
  31   4.85290733e+09  4.78023479e+09  2.87e-05 1.86e-09  1.07e+02    13s
  32   4.84590043e+09  4.79865858e+09  1.73e-05 1.86e-09  6.92e+01    13s
  33   4.84163215e+09  4.81013540e+09  1.02e-05 1.86e-09  4.61e+01    14s
  34   4.83936618e+09  4.81759574e+09  6.67e-06 1.86e-09  3.19e+01    14s
  35   4.83806930e+09  4.82178188e+09  4.66e-06 1.86e-09  2.39e+01    14s
  36   4.83714841e+09  4.82622422e+09  3.27e-06 1.86e-09  1.60e+01    15s
  37   4.83606262e+09  4.82837521e+09  1.69e-06 1.86e-09  1.13e+01    15s
  38   4.83556081e+09  4.83230805e+09  9.77e-07 1.86e-09  4.76e+00    15s
  39   4.83511621e+09  4.83284512e+09  3.74e-07 1.86e-09  3.32e+00    15s
  40   4.83496094e+09  4.83391424e+09  1.59e-07 1.86e-09  1.53e+00    16s
  41   4.83486959e+09  4.83439182e+09  1.55e-07 1.86e-09  6.99e-01    16s
  42   4.83483606e+09  4.83460865e+09  1.70e-07 1.86e-09  3.33e-01    16s
  43   4.83482817e+09  4.83470998e+09  1.97e-07 2.79e-09  1.73e-01    16s
  44   4.83482123e+09  4.83475938e+09  1.38e-07 1.86e-09  9.05e-02    17s
  45   4.83481823e+09  4.83480495e+09  7.52e-08 2.79e-09  1.94e-02    17s
  46   4.83481700e+09  4.83481420e+09  1.65e-08 2.79e-09  4.10e-03    17s
  47   4.83481668e+09  4.83481609e+09  7.39e-09 2.79e-09  8.66e-04    18s
  48   4.83481664e+09  4.83481663e+09  2.24e-11 7.63e-09  1.72e-05    18s
  49   4.83481664e+09  4.83481664e+09  6.52e-09 9.24e-09  1.51e-10    18s

Barrier solved model in 49 iterations and 18.22 seconds
Optimal objective 4.83481664e+09

Crossover log...

   38453 DPushes remaining with DInf 0.0000000e+00                18s
       0 DPushes remaining with DInf 0.0000000e+00                19s

   61841 PPushes remaining with PInf 0.0000000e+00                19s
   36722 PPushes remaining with PInf 0.0000000e+00                23s
   21541 PPushes remaining with PInf 0.0000000e+00                26s
       0 PPushes remaining with PInf 0.0000000e+00                30s

  Push phase complete: Pinf 0.0000000e+00, Dinf 2.3107300e-09     30s

Iteration    Objective       Primal Inf.    Dual Inf.      Time
   74018    4.8348166e+09   0.000000e+00   0.000000e+00     32s

Solved with barrier
Solved in 74018 iterations and 31.68 seconds
Optimal objective  4.834816637e+09
Warning: unscaled primal violation = 0.000873406 and residual = 0.000873406
